experiment/data/lkh-res/Vrp-Set-A-n55/Vrp-Set-A-n55-lkh/0.lkh1.vrp
NAME : 0
COMMENT : CVRP Instance
TYPE : CVRP
DIMENSION : 55
EDGE_WEIGHT_TYPE : EUC_2D
CAPACITY : 100
NODE_COORD_SECTION
1	3600	6400
2	9400	4700
3	1000	2300
4	1600	4600
5	2500	7900
6	4100	3000
7	8100	4500
8	1400	7900
9	4200	5600
10	9000	1700
11	4100	3900
12	2100	1400
13	4100	4600
14	6500	9600
15	1300	4900
16	2100	1400
17	5700	200
18	1400	4200
19	6600	6200
20	5800	9600
21	500	5100
22	4100	5000
23	5000	9900
24	8400	8500
25	9700	9000
26	4700	7600
27	1100	5400
28	6000	9700
29	6000	8900
30	5800	6800
31	3000	9300
32	900	6000
33	4700	4400
34	1900	4000
35	1500	4000
36	8800	2100
37	3300	5800
38	2100	5100
39	5700	700
40	8100	600
41	4900	600
42	5100	7800
43	900	6200
44	8400	3600
45	9500	7600
46	8900	4400
47	1000	4900
48	6900	1600
49	7500	6600
50	9700	1100
51	7400	6900
52	100	1400
53	9600	9100
54	4600	2200
55	7400	9200
DEMAND_SECTION
1	0
2	3
3	12
4	25
5	4
6	11
7	20
8	21
9	10
10	20
11	13
12	14
13	16
14	17
15	11
16	36
17	6
18	7
19	21
20	11
21	17
22	22
23	10
24	19
25	21
26	23
27	19
28	15
29	22
30	7
31	11
32	15
33	22
34	12
35	24
36	25
37	2
38	15
39	18
40	13
41	3
42	20
43	14
44	10
45	10
46	66
47	10
48	7
49	12
50	24
51	5
52	18
53	7
54	11
55	12
DEPOT_SECTION
1
-1
EOF
