experiment/data/lkh-res/Vrp-Set-A-n55/Vrp-Set-A-n55-lkh/0.lkh1.tour
NAME : 0.107448.tour
COMMENT : Length = 107448
COMMENT : Found by LKH-3 [Keld Helsgaun] Tue Apr  9 00:45:32 2024
TYPE : TOUR
DIMENSION : 63
TOUR_SECTION
1
9
7
46
2
58
19
49
51
45
25
53
24
63
37
12
16
52
3
18
15
57
26
42
30
62
48
40
50
10
36
44
61
27
47
21
32
43
8
5
59
13
11
6
54
41
17
39
33
56
22
34
35
4
38
60
31
23
20
28
14
55
29
-1
EOF
